

set I := I1 I2 I3 I4 ;
set J := J1 J2 J3 ;

param: D :=
  I1 30
  I2 75
  I3 90
  I4 50 ;

param: P :=
  J1 100
  J2  75
  J3 90 ;

param A :
     I1   I2   I3   I4   :=
  J1 1283 1628 1202 2895
  J2 1379 1082  408 2121
  J3 2735 1548 1926  965 ;

param: f := 0.05;
